c Reduced graph for r250.1 generated by Cyril Grelier
p edge 250 867
e 1 50
e 1 57
e 1 58
e 1 61
e 1 63
e 1 87
e 1 140
e 1 153
e 1 176
e 1 193
e 1 194
e 1 202
e 1 205
e 2 5
e 2 6
e 2 8
e 2 10
e 2 21
e 2 31
e 2 33
e 2 40
e 2 51
e 2 53
e 2 82
e 2 97
e 2 116
e 3 4
e 3 7
e 3 9
e 3 11
e 3 12
e 3 13
e 3 15
e 3 17
e 3 20
e 3 34
e 3 35
e 3 36
e 3 46
e 4 7
e 4 9
e 4 11
e 4 12
e 4 13
e 4 15
e 4 17
e 4 20
e 4 34
e 4 35
e 4 36
e 4 46
e 5 6
e 5 8
e 5 10
e 5 21
e 5 31
e 5 33
e 5 40
e 5 53
e 5 82
e 5 97
e 5 116
e 5 125
e 6 8
e 6 21
e 6 31
e 6 40
e 6 51
e 6 54
e 6 82
e 6 84
e 6 97
e 6 112
e 6 192
e 7 11
e 7 13
e 7 17
e 7 19
e 7 20
e 7 34
e 7 36
e 7 62
e 7 77
e 7 99
e 7 206
e 8 21
e 8 31
e 8 40
e 8 51
e 8 54
e 8 84
e 8 97
e 8 112
e 8 192
e 9 11
e 9 12
e 9 15
e 9 17
e 9 34
e 9 35
e 9 46
e 9 52
e 9 71
e 9 128
e 10 21
e 10 31
e 10 33
e 10 40
e 10 51
e 10 53
e 10 82
e 10 97
e 10 116
e 10 125
e 11 12
e 11 13
e 11 17
e 11 20
e 11 34
e 11 36
e 11 77
e 11 99
e 12 15
e 12 17
e 12 20
e 12 34
e 12 35
e 12 46
e 12 71
e 12 128
e 13 17
e 13 19
e 13 20
e 13 34
e 13 36
e 13 77
e 13 99
e 13 131
e 14 18
e 14 42
e 14 44
e 14 52
e 14 56
e 14 59
e 14 76
e 14 89
e 14 142
e 14 158
e 14 189
e 15 20
e 15 35
e 15 45
e 15 46
e 15 72
e 15 128
e 15 162
e 16 22
e 16 23
e 16 24
e 16 26
e 16 27
e 16 38
e 16 39
e 16 55
e 16 83
e 16 86
e 16 91
e 17 20
e 17 34
e 17 52
e 17 158
e 18 42
e 18 44
e 18 52
e 18 56
e 18 59
e 18 76
e 18 89
e 18 142
e 18 158
e 18 189
e 19 32
e 19 36
e 19 62
e 19 77
e 19 99
e 19 131
e 19 157
e 19 160
e 19 169
e 20 34
e 20 35
e 20 36
e 21 31
e 21 40
e 21 51
e 21 54
e 21 82
e 21 97
e 22 23
e 22 24
e 22 26
e 22 27
e 22 38
e 22 55
e 22 83
e 22 86
e 22 91
e 22 190
e 23 24
e 23 26
e 23 27
e 23 38
e 23 39
e 23 55
e 23 83
e 23 86
e 23 91
e 24 26
e 24 27
e 24 38
e 24 39
e 24 55
e 24 83
e 24 86
e 24 91
e 25 28
e 25 30
e 25 48
e 25 65
e 25 66
e 25 75
e 25 93
e 25 94
e 25 122
e 25 147
e 25 168
e 26 27
e 26 38
e 26 55
e 26 83
e 26 86
e 26 91
e 26 190
e 27 37
e 27 38
e 27 39
e 27 55
e 27 91
e 27 159
e 28 30
e 28 48
e 28 65
e 28 75
e 28 93
e 28 94
e 28 100
e 28 110
e 28 168
e 29 85
e 29 92
e 29 115
e 29 120
e 29 136
e 29 155
e 29 165
e 29 170
e 29 183
e 29 228
e 30 48
e 30 65
e 30 75
e 30 93
e 30 94
e 30 100
e 30 110
e 30 168
e 31 33
e 31 53
e 31 97
e 31 139
e 32 37
e 32 39
e 32 62
e 32 90
e 32 131
e 32 157
e 32 159
e 32 160
e 32 169
e 33 53
e 33 97
e 33 116
e 33 125
e 33 139
e 33 215
e 34 158
e 35 45
e 35 46
e 35 72
e 35 128
e 36 62
e 36 131
e 36 160
e 37 39
e 37 67
e 37 81
e 37 90
e 37 114
e 37 118
e 37 159
e 37 200
e 38 39
e 38 83
e 38 86
e 38 159
e 39 91
e 39 159
e 39 169
e 40 51
e 40 82
e 40 147
e 41 47
e 41 78
e 41 80
e 41 96
e 41 113
e 41 130
e 41 133
e 41 167
e 41 179
e 42 44
e 42 56
e 42 59
e 42 89
e 42 107
e 42 148
e 42 189
e 43 49
e 43 64
e 43 66
e 43 68
e 43 70
e 43 102
e 43 106
e 43 122
e 43 144
e 44 56
e 44 59
e 44 89
e 44 107
e 44 142
e 44 189
e 45 46
e 45 72
e 45 128
e 45 129
e 45 162
e 45 184
e 45 195
e 46 71
e 46 128
e 47 74
e 47 78
e 47 80
e 47 96
e 47 113
e 47 133
e 47 175
e 47 179
e 48 65
e 48 75
e 48 94
e 48 100
e 48 110
e 48 208
e 49 64
e 49 66
e 49 68
e 49 70
e 49 102
e 49 121
e 49 124
e 49 144
e 50 57
e 50 58
e 50 61
e 50 63
e 50 87
e 50 101
e 50 137
e 50 153
e 51 54
e 51 82
e 51 117
e 52 71
e 52 76
e 52 142
e 52 158
e 52 172
e 53 116
e 53 125
e 53 139
e 53 212
e 54 73
e 54 84
e 54 112
e 54 117
e 54 135
e 55 91
e 55 190
e 55 223
e 56 59
e 56 89
e 56 103
e 56 107
e 56 142
e 57 58
e 57 61
e 57 63
e 57 87
e 57 137
e 57 140
e 57 153
e 58 61
e 58 63
e 58 87
e 58 137
e 58 140
e 58 205
e 59 89
e 59 103
e 59 107
e 59 148
e 60 88
e 60 98
e 60 101
e 60 104
e 60 108
e 60 123
e 60 127
e 60 138
e 60 234
e 61 63
e 61 87
e 61 153
e 61 202
e 61 218
e 62 77
e 62 99
e 62 131
e 62 157
e 62 160
e 63 87
e 63 101
e 63 137
e 63 220
e 64 68
e 64 70
e 64 102
e 64 121
e 64 124
e 64 144
e 64 163
e 65 93
e 65 94
e 65 110
e 65 161
e 65 239
e 66 68
e 66 70
e 66 102
e 66 122
e 66 147
e 67 81
e 67 90
e 67 114
e 67 118
e 67 149
e 67 197
e 67 200
e 68 70
e 68 102
e 68 121
e 68 163
e 69 106
e 69 109
e 69 122
e 69 126
e 69 130
e 69 152
e 69 166
e 69 191
e 70 73
e 70 102
e 70 117
e 71 76
e 71 95
e 71 128
e 71 172
e 72 162
e 72 195
e 72 201
e 72 214
e 72 221
e 73 84
e 73 102
e 73 117
e 73 135
e 73 163
e 73 219
e 74 78
e 74 80
e 74 96
e 74 132
e 74 133
e 74 175
e 74 199
e 75 100
e 75 147
e 75 168
e 75 208
e 76 95
e 76 119
e 76 142
e 76 172
e 77 99
e 77 145
e 77 206
e 78 80
e 78 96
e 78 113
e 78 133
e 78 175
e 79 109
e 79 111
e 79 146
e 79 167
e 79 174
e 79 180
e 79 217
e 79 227
e 80 96
e 80 113
e 80 133
e 80 175
e 81 90
e 81 114
e 81 118
e 81 149
e 81 197
e 81 200
e 82 147
e 83 86
e 83 100
e 84 112
e 84 117
e 84 135
e 84 219
e 85 92
e 85 120
e 85 136
e 85 155
e 85 165
e 85 170
e 85 183
e 86 100
e 87 137
e 87 153
e 88 98
e 88 101
e 88 104
e 88 108
e 88 123
e 88 127
e 88 138
e 89 107
e 89 148
e 90 114
e 90 118
e 90 149
e 90 157
e 92 115
e 92 120
e 92 136
e 92 155
e 92 165
e 92 170
e 93 94
e 93 122
e 93 152
e 93 161
e 94 110
e 94 161
e 95 119
e 95 172
e 95 173
e 95 185
e 95 207
e 95 210
e 96 132
e 96 133
e 96 175
e 98 101
e 98 104
e 98 108
e 98 123
e 98 138
e 98 234
e 99 145
e 99 206
e 100 110
e 100 208
e 101 104
e 101 137
e 101 220
e 102 117
e 103 145
e 103 154
e 103 164
e 103 171
e 103 181
e 103 204
e 104 108
e 104 123
e 104 138
e 104 234
e 105 134
e 105 143
e 105 150
e 105 156
e 105 178
e 105 187
e 105 216
e 106 126
e 106 144
e 106 152
e 106 166
e 106 191
e 107 148
e 107 181
e 108 123
e 108 127
e 108 138
e 109 126
e 109 130
e 109 146
e 109 167
e 109 174
e 110 239
e 111 146
e 111 174
e 111 180
e 111 184
e 111 201
e 111 217
e 112 135
e 112 151
e 112 192
e 113 130
e 113 166
e 113 179
e 114 118
e 114 149
e 114 200
e 115 136
e 115 141
e 115 177
e 115 203
e 115 213
e 116 125
e 116 212
e 117 135
e 118 149
e 118 157
e 119 172
e 119 173
e 119 185
e 119 207
e 119 210
e 120 155
e 120 165
e 120 170
e 120 183
e 121 124
e 121 163
e 121 225
e 121 230
e 122 152
e 122 191
e 123 127
e 123 138
e 124 144
e 124 225
e 124 230
e 124 238
e 125 139
e 125 212
e 126 130
e 126 152
e 126 166
e 126 191
e 127 138
e 127 209
e 127 235
e 129 141
e 129 162
e 129 177
e 129 184
e 129 195
e 129 203
e 130 166
e 130 179
e 131 160
e 131 169
e 132 186
e 132 188
e 132 196
e 132 198
e 132 199
e 133 167
e 134 143
e 134 150
e 134 156
e 134 187
e 134 216
e 134 232
e 135 163
e 135 219
e 136 141
e 136 182
e 136 224
e 137 220
e 139 209
e 139 215
e 139 243
e 140 176
e 140 193
e 140 194
e 140 205
e 141 177
e 141 182
e 141 203
e 141 213
e 142 158
e 143 150
e 143 151
e 143 156
e 143 178
e 143 187
e 144 238
e 145 171
e 145 204
e 145 206
e 146 161
e 146 174
e 146 180
e 147 168
e 148 181
e 148 247
e 149 197
e 150 151
e 150 156
e 150 178
e 151 156
e 151 178
e 151 192
e 152 191
e 153 218
e 154 164
e 154 171
e 154 204
e 154 211
e 154 233
e 155 165
e 155 170
e 156 178
e 157 241
e 159 169
e 160 169
e 161 174
e 161 180
e 162 184
e 162 195
e 163 219
e 164 171
e 164 181
e 164 211
e 164 233
e 165 170
e 166 179
e 167 217
e 167 227
e 168 208
e 171 181
e 171 204
e 172 173
e 173 185
e 173 207
e 173 210
e 174 180
e 175 242
e 176 193
e 176 194
e 176 205
e 176 236
e 177 183
e 177 203
e 177 228
e 178 192
e 182 213
e 182 224
e 182 229
e 183 228
e 184 195
e 185 189
e 185 210
e 186 188
e 186 198
e 186 199
e 186 250
e 187 216
e 187 232
e 188 196
e 188 198
e 188 199
e 190 223
e 190 226
e 193 194
e 193 202
e 194 202
e 196 198
e 196 242
e 196 245
e 197 236
e 197 237
e 198 199
e 200 240
e 201 214
e 201 221
e 201 231
e 202 218
e 203 213
e 204 206
e 205 240
e 207 229
e 209 215
e 209 235
e 211 222
e 211 233
e 212 226
e 214 221
e 214 231
e 215 243
e 216 232
e 217 227
e 218 244
e 220 223
e 221 231
e 222 241
e 222 249
e 224 229
e 225 230
e 226 235
e 236 237
e 237 246
e 238 248
